31 13
12 6
38 10
10 37
27 35
24 29
45 34
29 17
24 48
38 31
42 11
6 44
40 9
10 26
25 25
9 8
50 46
20 41
24 40
2 17
5 46
28 3
8 44
20 16
11 38
41 23
31 43
33 6
48 10
28 9
8 48
46 22
45 10
11 31
40 37
25 26
8 17
31 3
8 21
3 50
25 13
1 20
9 24
33 4
28 45
1 18
12 31
17 48
3 21
37 42
16 7
49 15
2 11
2 13
18 20
11 25
21 32
43 8
13 1
43 36
40 47
20 10
21 24
15 3
8 24
39 21
7 1
34 1
16 17
9 47
42 26
11 26
45 29
30 25
46 23
16 6
42 20
45 4
3 20
38 13
6 30
24 33
32 29
42 29
38 49
15 45
35 13
11 21
16 25
40 40
1 7
2 46
36 31
47 12
22 12
3 2
41 20
45 35
1 16
33 46
